(set-info :smt-lib-version 2.6)
(set-logic UF)
(set-info :source |Benchmarks from the paper: "Extending Sledgehammer with SMT Solvers" by Jasmin Blanchette, Sascha Bohme, and Lawrence C. Paulson, CADE 2011.  Translated to SMT2 by Andrew Reynolds and Morgan Deters.|)
(set-info :category "industrial")
(set-info :status unknown)
(declare-sort S1 0)
(declare-sort S2 0)
(declare-sort S3 0)
(declare-sort S4 0)
(declare-sort S5 0)
(declare-sort S6 0)
(declare-sort S7 0)
(declare-sort S8 0)
(declare-sort S9 0)
(declare-sort S10 0)
(declare-sort S11 0)
(declare-sort S12 0)
(declare-sort S13 0)
(declare-sort S14 0)
(declare-sort S15 0)
(declare-sort S16 0)
(declare-sort S17 0)
(declare-sort S18 0)
(declare-sort S19 0)
(declare-sort S20 0)
(declare-sort S21 0)
(declare-sort S22 0)
(declare-sort S23 0)
(declare-sort S24 0)
(declare-sort S25 0)
(declare-sort S26 0)
(declare-sort S27 0)
(declare-sort S28 0)
(declare-fun f1 () S1)
(declare-fun f2 () S1)
(declare-fun f3 (S3 S2) S2)
(declare-fun f4 () S3)
(declare-fun f5 (S4 S5) S2)
(declare-fun f6 (S6 S2) S4)
(declare-fun f7 (S7 S2) S6)
(declare-fun f8 () S7)
(declare-fun f9 () S2)
(declare-fun f10 () S5)
(declare-fun f11 () S3)
(declare-fun f12 () S6)
(declare-fun f13 () S5)
(declare-fun f14 (S8 S2) S1)
(declare-fun f15 () S8)
(declare-fun f16 (S10 S2 S9) S1)
(declare-fun f17 (S11 S9) S10)
(declare-fun f18 (S12 S5) S11)
(declare-fun f19 (S13 S10) S12)
(declare-fun f20 () S13)
(declare-fun f21 () S10)
(declare-fun f22 () S9)
(declare-fun f23 (S14 S5) S3)
(declare-fun f24 () S14)
(declare-fun f25 (S10) S8)
(declare-fun f26 (S15 S2) S14)
(declare-fun f27 () S15)
(declare-fun f28 (S16 S8) S8)
(declare-fun f29 (S8) S16)
(declare-fun f30 () S3)
(declare-fun f31 () S8)
(declare-fun f32 (S17 S18) S2)
(declare-fun f33 (S19 S2) S17)
(declare-fun f34 (S20 S21) S19)
(declare-fun f35 () S20)
(declare-fun f36 () S21)
(declare-fun f37 () S4)
(declare-fun f38 () S5)
(declare-fun f39 () S18)
(declare-fun f40 (S8 S18) S1)
(declare-fun f41 (S22 S18) S18)
(declare-fun f42 (S23 S3) S22)
(declare-fun f43 () S23)
(declare-fun f44 () S2)
(declare-fun f45 () S2)
(declare-fun f46 (S21 S2) S3)
(declare-fun f47 () S9)
(declare-fun f48 () S3)
(declare-fun f49 () S10)
(declare-fun f50 () S5)
(declare-fun f51 () S9)
(declare-fun f52 (S10 S18 S24) S1)
(declare-fun f53 () S24)
(declare-fun f54 (S25 S9) S9)
(declare-fun f55 (S26 S9) S25)
(declare-fun f56 () S26)
(declare-fun f57 (S10 S5) S9)
(declare-fun f58 (S27 S24) S25)
(declare-fun f59 (S28 S26) S27)
(declare-fun f60 () S28)
(assert (not (= f1 f2)))
(assert (forall ((?v0 S2)) (= (f3 f4 ?v0) (f5 (f6 (f7 f8 ?v0) f9) f10))))
(assert (forall ((?v0 S2)) (= (f3 f11 ?v0) (f5 (f6 f12 ?v0) f13))))
(assert (forall ((?v0 S2)) (= (= (f14 f15 ?v0) f1) (exists ((?v1 S9)) (= (f16 (f17 (f18 (f19 f20 f21) f10) f22) ?v0 ?v1) f1)))))
(assert (forall ((?v0 S5) (?v1 S2)) (= (f3 (f23 f24 ?v0) ?v1) (f5 (f6 f12 ?v1) ?v0))))
(assert (forall ((?v0 S10) (?v1 S2)) (= (= (f14 (f25 ?v0) ?v1) f1) (exists ((?v2 S9)) (= (f16 ?v0 ?v1 ?v2) f1)))))
(assert (forall ((?v0 S2) (?v1 S5) (?v2 S2)) (= (f3 (f23 (f26 f27 ?v0) ?v1) ?v2) (f5 (f6 (f7 f8 ?v2) ?v0) ?v1))))
(assert (forall ((?v0 S8) (?v1 S8) (?v2 S2)) (= (= (f14 (f28 (f29 ?v0) ?v1) ?v2) f1) (and (= (f14 ?v0 ?v2) f1) (= (f14 ?v1 ?v2) f1)))))
(assert (forall ((?v0 S2)) (= (f3 f30 ?v0) ?v0)))
(assert (not (= (f14 f31 (f5 (f6 (f7 f8 (f32 (f33 (f34 f35 f36) (f5 f37 f38)) f39)) f9) f10)) f1)))
(assert (not (= f38 f10)))
(assert (= (f40 f31 (f41 (f42 f43 f4) f39)) f1))
(assert (= (f14 f31 f44) f1))
(assert (= (f14 f31 f45) f1))
(assert (not (= f38 f10)))
(assert (= (f14 f31 f9) f1))
(assert (forall ((?v0 S5)) (= (f14 f31 (f5 f37 ?v0)) f1)))
(assert (forall ((?v0 S2) (?v1 S5)) (=> (= (f14 f31 ?v0) f1) (= (f14 f31 (f3 (f46 f36 ?v0) (f5 f37 ?v1))) f1))))
(assert (forall ((?v0 S2) (?v1 S5) (?v2 S5)) (=> (= (f14 f31 ?v0) f1) (= (f14 f31 (f5 (f6 (f7 f8 ?v0) (f5 f37 ?v1)) ?v2)) f1))))
(assert (forall ((?v0 S18) (?v1 S5)) (=> (= (f40 f31 ?v0) f1) (= (f14 f31 (f32 (f33 (f34 f35 f36) (f5 f37 ?v1)) ?v0)) f1))))
(assert (forall ((?v0 S5) (?v1 S18) (?v2 S5) (?v3 S18)) (let ((?v_0 (f34 f35 f36))) (= (= (f32 (f33 ?v_0 (f5 f37 ?v0)) ?v1) (f32 (f33 ?v_0 (f5 f37 ?v2)) ?v3)) (and (= ?v0 ?v2) (= ?v1 ?v3))))))
(assert (= (f40 f31 (f41 (f42 f43 f4) f39)) f1))
(assert (forall ((?v0 S5) (?v1 S2)) (= (f5 (f6 (f7 f8 (f5 f37 ?v0)) ?v1) ?v0) ?v1)))
(assert (forall ((?v0 S2) (?v1 S2) (?v2 S2) (?v3 S5)) (= (f5 (f6 (f7 f8 (f3 (f46 f36 ?v0) ?v1)) ?v2) ?v3) (f3 (f46 f36 (f5 (f6 (f7 f8 ?v0) ?v2) ?v3)) (f5 (f6 (f7 f8 ?v1) ?v2) ?v3)))))
(assert (forall ((?v0 S5) (?v1 S2) (?v2 S2)) (not (= (f5 f37 ?v0) (f3 (f46 f36 ?v1) ?v2)))))
(assert (forall ((?v0 S2) (?v1 S2) (?v2 S5)) (not (= (f3 (f46 f36 ?v0) ?v1) (f5 f37 ?v2)))))
(assert (forall ((?v0 S2) (?v1 S18) (?v2 S2)) (let ((?v_0 (f34 f35 f36))) (= (= (f32 (f33 ?v_0 ?v0) ?v1) (f32 (f33 ?v_0 ?v2) ?v1)) (= ?v0 ?v2)))))
(assert (= (f16 (f17 (f18 (f19 f20 f21) f10) f22) (f32 (f33 (f34 f35 f36) (f5 f37 f38)) f39) f47) f1))
(assert (forall ((?v0 S5) (?v1 S5)) (= (= (f5 f37 ?v0) (f5 f37 ?v1)) (= ?v0 ?v1))))
(assert (forall ((?v0 S2) (?v1 S2) (?v2 S2) (?v3 S2)) (= (= (f3 (f46 f36 ?v0) ?v1) (f3 (f46 f36 ?v2) ?v3)) (and (= ?v0 ?v2) (= ?v1 ?v3)))))
(assert (forall ((?v0 S2) (?v1 S2) (?v2 S5) (?v3 S18)) (not (= (f3 (f46 f36 (f3 f48 ?v0)) ?v1) (f32 (f33 (f34 f35 f36) (f5 f37 ?v2)) ?v3)))))
(assert (= (f16 f21 f9 f22) f1))
(assert (= (f16 f49 f45 f22) f1))
(assert (forall ((?v0 S2)) (=> (= (f14 f31 ?v0) f1) (= (f14 f31 (f3 f48 ?v0)) f1))))
(assert (= (f16 (f17 (f18 (f19 f20 f49) f50) f22) (f32 (f33 (f34 f35 f36) (f5 f37 f38)) f39) f51) f1))
(assert (= (f52 (f17 (f18 (f19 f20 f21) f10) f22) f39 f53) f1))
(assert (forall ((?v0 S2) (?v1 S2)) (= (= (f3 f48 ?v0) (f3 f48 ?v1)) (= ?v0 ?v1))))
(assert (forall ((?v0 S2) (?v1 S2) (?v2 S2)) (not (= (f3 (f46 f36 ?v0) ?v1) (f3 f48 ?v2)))))
(assert (forall ((?v0 S2) (?v1 S2) (?v2 S2)) (not (= (f3 f48 ?v0) (f3 (f46 f36 ?v1) ?v2)))))
(assert (forall ((?v0 S5) (?v1 S2)) (not (= (f5 f37 ?v0) (f3 f48 ?v1)))))
(assert (forall ((?v0 S2) (?v1 S5)) (not (= (f3 f48 ?v0) (f5 f37 ?v1)))))
(assert (forall ((?v0 S2) (?v1 S18) (?v2 S2) (?v3 S5)) (let ((?v_0 (f34 f35 f36))) (= (f5 (f6 (f7 f8 (f32 (f33 ?v_0 ?v0) ?v1)) ?v2) ?v3) (f32 (f33 ?v_0 (f5 (f6 (f7 f8 ?v0) ?v2) ?v3)) (f41 (f42 f43 (f23 (f26 f27 ?v2) ?v3)) ?v1))))))
(assert (forall ((?v0 S2) (?v1 S18) (?v2 S2) (?v3 S18)) (let ((?v_0 (f34 f35 f36))) (= (= (f32 (f33 ?v_0 (f3 f48 ?v0)) ?v1) (f32 (f33 ?v_0 (f3 f48 ?v2)) ?v3)) (and (= ?v0 ?v2) (= ?v1 ?v3))))))
(assert (forall ((?v0 S5) (?v1 S18) (?v2 S2) (?v3 S18)) (let ((?v_0 (f34 f35 f36))) (not (= (f32 (f33 ?v_0 (f5 f37 ?v0)) ?v1) (f32 (f33 ?v_0 (f3 f48 ?v2)) ?v3))))))
(assert (forall ((?v0 S9) (?v1 S9) (?v2 S2) (?v3 S10) (?v4 S5) (?v5 S9) (?v6 S2)) (=> (= f22 (f54 (f55 f56 ?v0) ?v1)) (=> (= (f14 f31 ?v2) f1) (=> (= (f16 (f17 (f18 (f19 f20 ?v3) ?v4) ?v1) ?v2 ?v5) f1) (=> (= (f14 f31 ?v6) f1) (=> (= (f16 ?v3 ?v6 ?v1) f1) (= (f14 f31 (f5 (f6 (f7 f8 ?v2) ?v6) ?v4)) f1))))))))
(assert (forall ((?v0 S9) (?v1 S9) (?v2 S2) (?v3 S10) (?v4 S5) (?v5 S9) (?v6 S2)) (=> (= f22 (f54 (f55 f56 ?v0) ?v1)) (=> (= (f14 f31 ?v2) f1) (=> (= (f16 (f17 (f18 (f19 f20 ?v3) ?v4) ?v0) ?v2 ?v5) f1) (=> (= (f14 f31 ?v6) f1) (=> (= (f16 ?v3 ?v6 ?v0) f1) (= (f14 f31 (f5 (f6 (f7 f8 ?v2) ?v6) ?v4)) f1))))))))
(assert (= (f40 f15 f39) f1))
(assert (=> (forall ((?v0 S24)) (=> (= (f52 (f17 (f18 (f19 f20 f21) f10) f22) f39 ?v0) f1) false)) false))
(assert (forall ((?v0 S10) (?v1 S5) (?v2 S9)) (=> (= (f16 ?v0 (f5 f37 ?v1) ?v2) f1) (=> (=> (= (f57 ?v0 ?v1) ?v2) false) false))))
(assert (forall ((?v0 S10) (?v1 S5) (?v2 S9)) (=> (= (f57 ?v0 ?v1) ?v2) (= (f16 ?v0 (f5 f37 ?v1) ?v2) f1))))
(assert (forall ((?v0 S10) (?v1 S5) (?v2 S18) (?v3 S9) (?v4 S9)) (let ((?v_0 (f32 (f33 (f34 f35 f36) (f5 f37 ?v1)) ?v2))) (=> (= (f16 ?v0 ?v_0 ?v3) f1) (=> (= (f16 ?v0 ?v_0 ?v4) f1) (= ?v3 ?v4))))))
(assert (forall ((?v0 S10) (?v1 S2) (?v2 S9) (?v3 S10) (?v4 S2) (?v5 S9) (?v6 S5)) (=> (= (f16 ?v0 ?v1 ?v2) f1) (=> (= (f16 ?v3 ?v4 ?v5) f1) (=> (= ?v0 (f17 (f18 (f19 f20 ?v3) ?v6) ?v5)) (= (f16 ?v3 (f5 (f6 (f7 f8 ?v1) ?v4) ?v6) ?v2) f1))))))
(assert (forall ((?v0 S2) (?v1 S2) (?v2 S18)) (let ((?v_0 (f34 f35 f36))) (=> (= (f14 f31 (f32 (f33 ?v_0 (f5 (f6 (f7 f8 ?v0) ?v1) f13)) ?v2)) f1) (=> (= (f14 f31 ?v1) f1) (= (f14 f31 (f32 (f33 ?v_0 (f3 (f46 f36 (f3 f48 ?v0)) ?v1)) ?v2)) f1))))))
(assert (forall ((?v0 S10) (?v1 S2) (?v2 S9) (?v3 S9) (?v4 S2)) (=> (= (f16 ?v0 ?v1 (f54 (f55 f56 ?v2) ?v3)) f1) (=> (= (f16 ?v0 ?v4 ?v2) f1) (= (f16 ?v0 (f3 (f46 f36 ?v1) ?v4) ?v3) f1)))))
(assert (forall ((?v0 S10) (?v1 S9) (?v2 S2) (?v3 S9)) (=> (= (f16 (f17 (f18 (f19 f20 ?v0) f13) ?v1) ?v2 ?v3) f1) (= (f16 ?v0 (f3 f48 ?v2) (f54 (f55 f56 ?v1) ?v3)) f1))))
(assert (forall ((?v0 S9) (?v1 S9) (?v2 S9) (?v3 S9)) (= (= (f54 (f55 f56 ?v0) ?v1) (f54 (f55 f56 ?v2) ?v3)) (and (= ?v0 ?v2) (= ?v1 ?v3)))))
(assert (forall ((?v0 S10) (?v1 S18) (?v2 S24)) (=> (= (f52 ?v0 ?v1 ?v2) f1) (= (f40 (f25 ?v0) ?v1) f1))))
(assert (forall ((?v0 S5) (?v1 S5) (?v2 S10) (?v3 S9)) (=> (= ?v0 ?v1) (= (f57 (f17 (f18 (f19 f20 ?v2) ?v0) ?v3) ?v1) ?v3))))
(assert (forall ((?v0 S18)) (= (f41 (f42 f43 f30) ?v0) ?v0)))
(assert (forall ((?v0 S10) (?v1 S2) (?v2 S9) (?v3 S5) (?v4 S18) (?v5 S24)) (=> (= (f16 ?v0 ?v1 ?v2) f1) (=> (= (f52 (f17 (f18 (f19 f20 ?v0) ?v3) ?v2) ?v4 ?v5) f1) (= (f52 ?v0 (f41 (f42 f43 (f23 (f26 f27 ?v1) ?v3)) ?v4) ?v5) f1)))))
(assert (forall ((?v0 S8) (?v1 S8) (?v2 S18)) (= (= (f40 (f28 (f29 ?v0) ?v1) ?v2) f1) (and (= (f40 ?v0 ?v2) f1) (= (f40 ?v1 ?v2) f1)))))
(assert (forall ((?v0 S10) (?v1 S2) (?v2 S9)) (=> (= (f16 ?v0 (f3 f48 ?v1) ?v2) f1) (=> (forall ((?v3 S9) (?v4 S9)) (=> (= ?v2 (f54 (f55 f56 ?v3) ?v4)) (=> (= (f16 (f17 (f18 (f19 f20 ?v0) f13) ?v3) ?v1 ?v4) f1) false))) false))))
(assert (forall ((?v0 S10) (?v1 S2) (?v2 S2) (?v3 S9)) (=> (= (f16 ?v0 (f3 (f46 f36 ?v1) ?v2) ?v3) f1) (=> (forall ((?v4 S9)) (=> (= (f16 ?v0 ?v1 (f54 (f55 f56 ?v4) ?v3)) f1) (=> (= (f16 ?v0 ?v2 ?v4) f1) false))) false))))
(assert (forall ((?v0 S10) (?v1 S2) (?v2 S9)) (=> (= (f16 ?v0 (f3 f48 ?v1) ?v2) f1) (=> (forall ((?v3 S9) (?v4 S9)) (=> (= (f16 (f17 (f18 (f19 f20 ?v0) f13) ?v3) ?v1 ?v4) f1) false)) false))))
(assert (forall ((?v0 S2)) (= (= (f14 f31 ?v0) f1) (or (exists ((?v1 S18) (?v2 S5)) (and (= ?v0 (f32 (f33 (f34 f35 f36) (f5 f37 ?v2)) ?v1)) (= (f40 f31 ?v1) f1))) (or (exists ((?v1 S2)) (and (= ?v0 (f3 f48 ?v1)) (= (f14 f31 ?v1) f1))) (exists ((?v1 S2) (?v2 S2) (?v3 S18)) (let ((?v_0 (f34 f35 f36))) (and (= ?v0 (f32 (f33 ?v_0 (f3 (f46 f36 (f3 f48 ?v1)) ?v2)) ?v3)) (and (= (f14 f31 (f32 (f33 ?v_0 (f5 (f6 (f7 f8 ?v1) ?v2) f13)) ?v3)) f1) (= (f14 f31 ?v2) f1))))))))))
(assert (forall ((?v0 S10) (?v1 S2) (?v2 S24) (?v3 S9) (?v4 S18)) (=> (= (f16 ?v0 ?v1 (f54 (f58 (f59 f60 f56) ?v2) ?v3)) f1) (=> (= (f52 ?v0 ?v4 ?v2) f1) (= (f16 ?v0 (f32 (f33 (f34 f35 f36) ?v1) ?v4) ?v3) f1)))))
(assert (forall ((?v0 S18)) (=> (= (f40 f31 ?v0) f1) (= (f40 f31 (f41 (f42 f43 f11) ?v0)) f1))))
(assert (forall ((?v0 S10) (?v1 S5) (?v2 S18) (?v3 S9)) (=> (= (f16 ?v0 (f32 (f33 (f34 f35 f36) (f5 f37 ?v1)) ?v2) ?v3) f1) (=> (forall ((?v4 S24)) (=> (= (f16 ?v0 (f5 f37 ?v1) (f54 (f58 (f59 f60 f56) ?v4) ?v3)) f1) (=> (= (f52 ?v0 ?v2 ?v4) f1) false))) false))))
(assert (forall ((?v0 S10) (?v1 S5) (?v2 S18) (?v3 S18) (?v4 S9) (?v5 S24) (?v6 S9)) (let ((?v_0 (f34 f35 f36))) (let ((?v_1 (f32 (f33 ?v_0 (f5 f37 ?v1)) ?v2))) (=> (= (f16 ?v0 (f32 (f33 ?v_0 ?v_1) ?v3) ?v4) f1) (=> (= (f52 ?v0 ?v2 ?v5) f1) (=> (= (f16 ?v0 ?v_1 ?v6) f1) (exists ((?v7 S24)) (and (= ?v6 (f54 (f58 (f59 f60 f56) ?v7) ?v4)) (= (f52 ?v0 ?v3 ?v7) f1))))))))))
(assert (forall ((?v0 S2) (?v1 S5)) (=> (= (f14 f31 ?v0) f1) (= (f14 f31 (f5 (f6 f12 ?v0) ?v1)) f1))))
(assert (forall ((?v0 S10) (?v1 S2) (?v2 S9) (?v3 S5) (?v4 S9)) (=> (= (f16 ?v0 ?v1 ?v2) f1) (= (f16 (f17 (f18 (f19 f20 ?v0) ?v3) ?v4) (f5 (f6 f12 ?v1) ?v3) ?v2) f1))))
(assert (forall ((?v0 S2) (?v1 S2) (?v2 S5)) (= (f5 (f6 f12 (f3 (f46 f36 ?v0) ?v1)) ?v2) (f3 (f46 f36 (f5 (f6 f12 ?v0) ?v2)) (f5 (f6 f12 ?v1) ?v2)))))
(assert (forall ((?v0 S2) (?v1 S5) (?v2 S2)) (= (f5 (f6 (f7 f8 (f5 (f6 f12 ?v0) ?v1)) ?v2) ?v1) ?v0)))
(assert (forall ((?v0 S2) (?v1 S18) (?v2 S5)) (let ((?v_0 (f34 f35 f36))) (= (f5 (f6 f12 (f32 (f33 ?v_0 ?v0) ?v1)) ?v2) (f32 (f33 ?v_0 (f5 (f6 f12 ?v0) ?v2)) (f41 (f42 f43 (f23 f24 ?v2)) ?v1))))))
(check-sat)
(exit)
